networks/zoo_96_1585/zoo_96_1585-lower.txt
Number of groups: 47
Flow 32: {20 40 0} {40 91 0} 
Flow 34: {1 41 0} {41 43 0} {43 94 0} 
Flow 74: {2 20 0} {20 7 0} {7 42 0} {42 93 0} 
Flow 80: {3 4 0} {4 55 0} 
Flow 116: {4 3 0} {3 54 0} 
Flow 202: {6 5 0} {5 8 0} {8 38 0} {38 39 0} {39 90 0} 
Flow 245: {7 9 0} {9 43 0} {43 41 0} {41 92 0} 
Flow 248: {42 36 0} {36 45 0} {45 44 0} {44 95 0} 
Flow 271: {9 7 0} {7 20 0} {20 2 0} {2 53 0} 
Flow 323: {10 19 0} {19 33 0} {33 32 0} {32 30 0} 
Flow 348: {11 34 0} {34 14 0} {14 65 0} 
Flow 365: {11 21 0} {21 35 0} {35 30 0} {30 32 0} {32 33 0} {33 84 0} 
Flow 404: {12 18 0} {18 17 0} {17 22 0} {22 21 0} {21 34 0} {34 85 0} 
Flow 424: {13 17 0} {17 16 0} {16 67 0} 
Flow 475: {14 29 0} 
Flow 497: {15 16 0} {16 17 0} {17 18 0} {18 12 0} {12 63 0} 
Flow 541: {16 15 0} {15 66 0} 
Flow 581: {17 13 0} {13 64 0} 
Flow 596: {30 31 0} {31 82 0} 
Flow 651: {19 10 0} {10 61 0} 
Flow 712: {21 11 0} 
Flow 796: {23 24 0} {24 75 0} 
Flow 827: {24 23 0} {23 26 0} {26 25 0} {25 28 0} {28 34 0} {34 21 0} {21 22 0} {22 17 0} {17 68 0} 
Flow 873: {25 26 0} {26 77 0} 
Flow 907: {26 23 0} {23 74 0} 
Flow 933: {8 59 0} 
Flow 957: {35 86 0} 
Flow 1017: {29 21 0} {21 72 0} 
Flow 1021: {29 14 0} {14 34 0} {34 28 0} {28 25 0} {25 76 0} 
Flow 1053: {22 73 0} 
Flow 1059: {28 79 0} 
Flow 1077: {31 30 0} {30 35 0} {35 21 0} {21 27 0} {27 41 0} {41 2 0} {2 8 0} {8 5 0} {5 6 0} {6 57 0} 
Flow 1096: {31 32 0} {32 83 0} 
Flow 1113: {5 56 0} 
Flow 1137: {32 31 0} 
Flow 1162: {33 19 0} {19 70 0} 
Flow 1195: {34 11 0} {11 62 0} 
Flow 1233: {27 36 0} {36 42 0} {42 7 0} {7 58 0} 
Flow 1299: {37 3 0} {3 27 0} {27 78 0} 
Flow 1334: {38 8 0} {8 2 0} {2 41 0} {41 27 0} {27 45 0} {45 96 0} 
Flow 1366: {39 38 0} {38 89 0} 
Flow 1388: {40 20 0} {20 71 0} 
Flow 1411: {41 1 0} {1 52 0} 
Flow 1478: {36 27 0} {27 3 0} {3 37 0} {37 88 0} 
Flow 1491: {43 9 0} {9 60 0} 
Flow 1543: {44 45 0} {45 27 0} {27 21 0} {21 29 0} {29 80 0} 
Flow 1578: {45 36 0} {36 87 0} 
Time taken running everything: 7 seconds
