networks/zoo_96_1585/zoo_96_1585-lower.sol
<?xml version = "1.0" encoding="UTF-8" standalone="yes"?>
<CPLEXSolution version="1.2">
 <header
   problemName="networks/zoo_96_1585/zoo_96_1585-lower.lp"
   solutionName="incumbent"
   solutionIndex="-1"
   objectiveValue="43"
   solutionTypeValue="3"
   solutionTypeString="primal"
   solutionStatusValue="101"
   solutionStatusString="integer optimal solution"
   solutionMethodString="mip"
   primalFeasible="1"
   dualFeasible="1"
   MIPNodes="0"
   MIPIterations="0"
   writeLevel="3"/>
 <quality
   epInt="1.0000000000000001e-05"
   epRHS="9.9999999999999995e-07"
   maxIntInfeas="0"
   maxPrimalInfeas="0"
   maxX="1"
   maxSlack="1"/>
 <variables>
  <variable name="Y(1,2)" index="1" value="1"/>
  <variable name="Y(2,3)" index="90" value="1"/>
  <variable name="Y(3,4)" index="179" value="1"/>
  <variable name="Y(4,6)" index="269" value="1"/>
  <variable name="Y(5,7)" index="358" value="1"/>
  <variable name="Y(6,10)" index="449" value="1"/>
  <variable name="Y(7,12)" index="539" value="1"/>
  <variable name="Y(8,13)" index="628" value="1"/>
  <variable name="Y(9,14)" index="717" value="1"/>
  <variable name="Y(10,16)" index="807" value="1"/>
  <variable name="Y(11,17)" index="896" value="1"/>
  <variable name="Y(12,19)" index="986" value="1"/>
  <variable name="Y(13,20)" index="1075" value="1"/>
  <variable name="Y(14,21)" index="1164" value="1"/>
  <variable name="Y(15,22)" index="1253" value="1"/>
  <variable name="Y(16,23)" index="1342" value="1"/>
  <variable name="Y(17,24)" index="1431" value="1"/>
  <variable name="Y(18,25)" index="1520" value="1"/>
  <variable name="Y(19,26)" index="1609" value="1"/>
  <variable name="Y(20,27)" index="1698" value="1"/>
  <variable name="Y(21,28)" index="1787" value="1"/>
  <variable name="Y(22,29)" index="1876" value="1"/>
  <variable name="Y(23,31)" index="1966" value="1"/>
  <variable name="Y(24,32)" index="2055" value="1"/>
  <variable name="Y(25,33)" index="2144" value="1"/>
  <variable name="Y(26,34)" index="2233" value="1"/>
  <variable name="Y(27,35)" index="2322" value="1"/>
  <variable name="Y(28,36)" index="2411" value="1"/>
  <variable name="Y(29,37)" index="2500" value="1"/>
  <variable name="Y(30,38)" index="2589" value="1"/>
  <variable name="Y(31,39)" index="2678" value="1"/>
  <variable name="Y(32,40)" index="2767" value="1"/>
  <variable name="Y(33,41)" index="2856" value="1"/>
  <variable name="Y(34,43)" index="2946" value="1"/>
  <variable name="Y(35,44)" index="3035" value="1"/>
  <variable name="Y(36,45)" index="3124" value="1"/>
  <variable name="Y(37,1)" index="3168" value="1"/>
  <variable name="Y(40,5)" index="3436" value="1"/>
  <variable name="Y(43,9)" index="3704" value="1"/>
  <variable name="Y(45,11)" index="3882" value="1"/>
  <variable name="Y(49,15)" index="4238" value="1"/>
  <variable name="Y(74,42)" index="6465" value="1"/>
  <variable name="Y(135,8)" index="11799" value="1"/>
  <variable name="X(1,41,1)" index="139480" value="1"/>
  <variable name="X(1,52,37)" index="141101" value="1"/>
  <variable name="X(2,8,4)" index="142653" value="1"/>
  <variable name="X(2,20,5)" index="144239" value="1"/>
  <variable name="X(2,41,37)" index="145856" value="1"/>
  <variable name="X(2,53,1)" index="147405" value="1"/>
  <variable name="X(3,4,3)" index="148992" value="1"/>
  <variable name="X(3,27,78)" index="150652" value="1"/>
  <variable name="X(3,37,29)" index="152188" value="1"/>
  <variable name="X(3,54,2)" index="153746" value="1"/>
  <variable name="X(4,3,115)" index="155444" value="1"/>
  <variable name="X(4,55,3)" index="156917" value="1"/>
  <variable name="X(5,6,4)" index="158503" value="1"/>
  <variable name="X(5,8,129)" index="160213" value="1"/>
  <variable name="X(5,56,40)" index="161709" value="1"/>
  <variable name="X(6,5,171)" index="163425" value="1"/>
  <variable name="X(6,57,4)" index="164843" value="1"/>
  <variable name="X(7,9,208)" index="166632" value="1"/>
  <variable name="X(7,20,209)" index="168218" value="1"/>
  <variable name="X(7,42,74)" index="169668" value="1"/>
  <variable name="X(7,58,5)" index="171184" value="1"/>
  <variable name="X(8,2,129)" index="172893" value="1"/>
  <variable name="X(8,5,4)" index="174353" value="1"/>
  <variable name="X(8,38,30)" index="175964" value="1"/>
  <variable name="X(8,59,135)" index="177654" value="1"/>
  <variable name="X(9,7,271)" index="179375" value="1"/>
  <variable name="X(9,43,208)" index="180897" value="1"/>
  <variable name="X(9,60,43)" index="182317" value="1"/>
  <variable name="X(10,19,312)" index="184171" value="1"/>
  <variable name="X(10,61,6)" index="185450" value="1"/>
  <variable name="X(11,21,337)" index="187366" value="1"/>
  <variable name="X(11,34,348)" index="188962" value="1"/>
  <variable name="X(11,62,45)" index="190244" value="1"/>
  <variable name="X(12,18,378)" index="192162" value="1"/>
  <variable name="X(12,63,7)" index="193376" value="1"/>
  <variable name="X(13,17,415)" index="195369" value="1"/>
  <variable name="X(13,64,8)" index="196547" value="1"/>
  <variable name="X(14,29,475)" index="198599" value="1"/>
  <variable name="X(14,34,450)" index="200159" value="1"/>
  <variable name="X(14,65,9)" index="201303" value="1"/>
  <variable name="X(15,16,490)" index="203369" value="1"/>
  <variable name="X(15,66,49)" index="204513" value="1"/>
  <variable name="X(16,15,49)" index="206098" value="1"/>
  <variable name="X(16,17,490)" index="208124" value="1"/>
  <variable name="X(16,67,10)" index="209229" value="1"/>
  <variable name="X(17,13,8)" index="210812" value="1"/>
  <variable name="X(17,16,10)" index="212399" value="1"/>
  <variable name="X(17,18,7)" index="213981" value="1"/>
  <variable name="X(17,22,378)" index="215937" value="1"/>
  <variable name="X(17,68,11)" index="217155" value="1"/>
  <variable name="X(18,12,7)" index="218736" value="1"/>
  <variable name="X(18,17,378)" index="220692" value="1"/>
  <variable name="X(19,10,6)" index="221905" value="1"/>
  <variable name="X(19,33,312)" index="223796" value="1"/>
  <variable name="X(19,70,12)" index="225081" value="1"/>
  <variable name="X(20,2,209)" index="226863" value="1"/>
  <variable name="X(20,7,5)" index="228244" value="1"/>
  <variable name="X(20,40,32)" index="229856" value="1"/>
  <variable name="X(20,71,13)" index="231422" value="1"/>
  <variable name="X(21,11,45)" index="233039" value="1"/>
  <variable name="X(21,22,7)" index="234586" value="1"/>
  <variable name="X(21,27,312)" index="236476" value="1"/>
  <variable name="X(21,29,22)" index="237771" value="1"/>
  <variable name="X(21,34,9)" index="239343" value="1"/>
  <variable name="X(21,35,6)" index="240925" value="1"/>
  <variable name="X(21,72,14)" index="242518" value="1"/>
  <variable name="X(22,17,7)" index="244096" value="1"/>
  <variable name="X(22,21,378)" index="246052" value="1"/>
  <variable name="X(22,73,15)" index="247274" value="1"/>
  <variable name="X(23,24,17)" index="248861" value="1"/>
  <variable name="X(23,26,775)" index="251204" value="1"/>
  <variable name="X(23,74,16)" index="252030" value="1"/>
  <variable name="X(24,23,817)" index="254416" value="1"/>
  <variable name="X(24,75,17)" index="255201" value="1"/>
  <variable name="X(25,26,16)" index="256785" value="1"/>
  <variable name="X(25,28,775)" index="259129" value="1"/>
  <variable name="X(25,76,18)" index="259957" value="1"/>
  <variable name="X(26,23,16)" index="261540" value="1"/>
  <variable name="X(26,25,775)" index="263884" value="1"/>
  <variable name="X(26,77,19)" index="264713" value="1"/>
  <variable name="X(27,3,2)" index="266281" value="1"/>
  <variable name="X(27,21,6)" index="267870" value="1"/>
  <variable name="X(27,36,28)" index="269477" value="1"/>
  <variable name="X(27,41,78)" index="271112" value="1"/>
  <variable name="X(27,45,35)" index="272654" value="1"/>
  <variable name="X(27,78,20)" index="274224" value="1"/>
  <variable name="X(28,25,16)" index="275805" value="1"/>
  <variable name="X(28,34,775)" index="278149" value="1"/>
  <variable name="X(28,79,21)" index="278980" value="1"/>
  <variable name="X(29,14,1011)" index="281555" value="1"/>
  <variable name="X(29,21,998)" index="283127" value="1"/>
  <variable name="X(29,80,22)" index="283736" value="1"/>
  <variable name="X(30,31,23)" index="285322" value="1"/>
  <variable name="X(30,32,6)" index="286890" value="1"/>
  <variable name="X(30,35,312)" index="288781" value="1"/>
  <variable name="X(31,30,1073)" index="291127" value="1"/>
  <variable name="X(31,32,1079)" index="292718" value="1"/>
  <variable name="X(31,82,23)" index="293247" value="1"/>
  <variable name="X(32,30,312)" index="295121" value="1"/>
  <variable name="X(32,31,1137)" index="297531" value="1"/>
  <variable name="X(32,33,6)" index="297985" value="1"/>
  <variable name="X(32,83,24)" index="299588" value="1"/>
  <variable name="X(33,19,6)" index="301155" value="1"/>
  <variable name="X(33,32,312)" index="303046" value="1"/>
  <variable name="X(33,84,25)" index="304344" value="1"/>
  <variable name="X(34,11,459)" index="306363" value="1"/>
  <variable name="X(34,14,9)" index="307498" value="1"/>
  <variable name="X(34,21,450)" index="309524" value="1"/>
  <variable name="X(34,28,16)" index="310675" value="1"/>
  <variable name="X(34,85,26)" index="312270" value="1"/>
  <variable name="X(35,21,312)" index="314141" value="1"/>
  <variable name="X(35,30,6)" index="315420" value="1"/>
  <variable name="X(35,86,27)" index="317026" value="1"/>
  <variable name="X(36,27,210)" index="318794" value="1"/>
  <variable name="X(36,42,83)" index="320252" value="1"/>
  <variable name="X(36,45,248)" index="322002" value="1"/>
  <variable name="X(36,87,28)" index="323367" value="1"/>
  <variable name="X(37,3,1280)" index="326204" value="1"/>
  <variable name="X(37,88,29)" index="326538" value="1"/>
  <variable name="X(38,8,1313)" index="329407" value="1"/>
  <variable name="X(38,39,31)" index="329710" value="1"/>
  <variable name="X(38,89,30)" index="331294" value="1"/>
  <variable name="X(39,38,1335)" index="334184" value="1"/>
  <variable name="X(39,90,31)" index="334465" value="1"/>
  <variable name="X(40,20,1372)" index="337391" value="1"/>
  <variable name="X(40,91,32)" index="337636" value="1"/>
  <variable name="X(41,1,37)" index="339226" value="1"/>
  <variable name="X(41,2,1)" index="340775" value="1"/>
  <variable name="X(41,27,2)" index="342361" value="1"/>
  <variable name="X(41,43,34)" index="343978" value="1"/>
  <variable name="X(41,92,33)" index="345562" value="1"/>
  <variable name="X(42,7,83)" index="347197" value="1"/>
  <variable name="X(42,36,210)" index="348909" value="1"/>
  <variable name="X(42,93,74)" index="350358" value="1"/>
  <variable name="X(43,9,43)" index="351912" value="1"/>
  <variable name="X(43,41,208)" index="353662" value="1"/>
  <variable name="X(43,94,34)" index="355073" value="1"/>
  <variable name="X(44,45,1524)" index="358148" value="1"/>
  <variable name="X(44,95,35)" index="358244" value="1"/>
  <variable name="X(45,27,1524)" index="361318" value="1"/>
  <variable name="X(45,36,1527)" index="362906" value="1"/>
  <variable name="X(45,44,35)" index="362999" value="1"/>
  <variable name="X(45,96,36)" index="364585" value="1"/>
 </variables>
</CPLEXSolution>
